79960 78720 
79424 79038 
79467 79006 
79434 79034 
79208 79211 
79175 79239 
78191 79799 
78086 79863 
78053 79891 
77828 80045 
79572 78926 
79810 78824 
79777 78852 
79539 78954 
77575 80132 
77542 80160 
78149 79829 
79280 79159 
79647 78907 
78810 79514 
77006 80442 
76497 80592 
79069 79309 
77145 80369 
76625 80577 
79102 79281 
78534 79691 
75632 80880 
74964 80980 
76046 80783 
74828 80981 
78281 79778 
74482 81014 
74346 81015 
75139 80972 
75760 80865 
76004 80813 
76345 80672 
75278 80899 
73926 81025 
73790 81026 
75392 80885 
76854 80522 
76143 80740 
76257 80726 
76484 80599 
76598 80585 
77465 80163 
76993 80449 
